NAME : A-n34-k5.508171.tour
COMMENT : Length = 508171
COMMENT : Found by LKH [Keld Helsgaun] Sun Dec 17 18:34:53 2017
TYPE : TOUR
DIMENSION : 38
TOUR_SECTION
1
21
34
17
23
10
13
4
36
5
27
6
31
25
35
11
14
8
7
16
12
20
18
38
19
3
22
33
29
26
32
37
15
30
9
2
28
24
-1
EOF
